<number of tasks>
100

<cycle time>
1000

<order strength>
0.896


<task times>
1 218
2 248
3 24
4 208
5 87
6 196
7 80
8 99
9 144
10 266
11 149
12 69
13 38
14 210
15 134
16 78
17 117
18 142
19 70
20 96
21 182
22 75
23 114
24 210
25 68
26 36
27 88
28 196
29 38
30 145
31 216
32 102
33 23
34 80
35 78
36 94
37 129
38 165
39 191
40 84
41 231
42 179
43 112
44 94
45 68
46 190
47 133
48 223
49 99
50 122
51 204
52 211
53 66
54 101
55 131
56 170
57 272
58 34
59 169
60 64
61 184
62 71
63 185
64 233
65 46
66 29
67 180
68 65
69 139
70 250
71 169
72 193
73 152
74 64
75 141
76 91
77 182
78 180
79 241
80 69
81 79
82 69
83 25
84 64
85 157
86 145
87 50
88 53
89 227
90 201
91 116
92 147
93 106
94 169
95 221
96 158
97 184
98 263
99 98
100 238

<precedence relations>
1,6
1,7
1,8
1,9
1,10
2,6
2,7
2,8
2,9
2,10
3,6
3,7
3,8
3,9
3,10
4,6
4,7
4,8
4,9
4,10
5,6
5,7
5,8
5,9
5,10
6,11
6,12
6,13
7,11
7,12
7,13
8,11
8,12
8,13
9,11
9,12
9,13
10,11
10,12
10,13
11,14
11,15
11,16
12,14
12,15
12,16
13,14
13,15
13,16
14,17
14,18
14,19
15,17
15,18
15,19
16,17
16,18
16,19
17,20
18,20
19,20
20,21
20,22
20,23
20,24
21,25
21,26
21,27
21,28
21,29
22,25
22,26
22,27
22,28
22,29
23,25
23,26
23,27
23,28
23,29
24,25
24,26
24,27
24,28
24,29
25,30
25,31
25,32
25,33
26,30
26,31
26,32
26,33
27,30
27,31
27,32
27,33
28,30
28,31
28,32
28,33
29,30
29,31
29,32
29,33
30,34
30,35
30,36
30,37
31,34
31,35
31,36
31,37
32,34
32,35
32,36
32,37
33,34
33,35
33,36
33,37
34,38
34,39
34,40
35,38
35,39
35,40
36,38
36,39
36,40
37,38
37,39
37,40
38,41
38,42
39,41
39,42
40,41
40,42
41,43
41,44
41,45
42,43
42,44
42,45
43,46
43,47
43,48
43,49
44,46
44,47
44,48
44,49
45,46
45,47
45,48
45,49
46,50
46,51
46,52
47,50
47,51
47,52
48,50
48,51
48,52
49,50
49,51
49,52
50,53
50,55
51,54
51,55
52,53
52,54
52,55
53,59
53,60
54,56
54,57
55,56
56,58
56,60
57,58
57,59
57,60
57,61
58,65
58,82
59,63
59,64
59,67
60,62
60,63
60,64
61,63
61,70
62,65
62,67
63,66
63,68
63,69
63,78
64,65
64,73
64,80
64,84
65,87
66,95
67,70
67,71
68,76
68,80
69,71
69,89
70,73
70,74
70,75
70,76
71,72
72,86
72,87
73,81
73,88
73,92
74,79
74,81
75,78
75,80
76,77
76,96
77,81
77,82
78,84
79,88
79,92
79,93
80,81
80,83
80,91
81,89
81,95
83,89
83,90
83,95
84,85
85,86
85,87
85,88
85,89
85,90
86,92
87,91
88,96
88,100
91,93
91,94
92,95
92,96
94,99
94,100
96,97
96,98

<end>
